WARNING: for repeatability, setting FPU to use double precision
============================[ Problem Statistics ]=============================
|                                                                             |
|  Number of variables:            50                                         |
|  Number of clauses:             218                                         |
|  Parse time:                   0.00 s                                       |
|                                                                             |
============================[ Search Statistics ]==============================
| Conflicts |          ORIGINAL         |          LEARNT          | Progress |
|           |    Vars  Clauses Literals |    Limit  Clauses Lit/Cl |          |
===============================================================================
===============================================================================
restarts              : 1
conflicts             : 46             (31790 /sec)
decisions             : 63             (0.00 % random) (43538 /sec)
propagations          : 638            (440912 /sec)
conflict literals     : 243            (5.08 % deleted)
Memory used           : 20.00 MB
CPU time              : 0.001447 s

SATISFIABLE
